15
1 0 6
2 0 1
2 1 4
3 0 5
3 1 2
3 2 8
4 0 7
4 1 8
4 2 3
4 3 4
5 0 1
5 1 7
5 2 7
5 3 6
5 4 5
6 0 6
6 1 3
6 2 7
6 3 4
6 4 2
6 5 6
7 0 7
7 1 7
7 2 7
7 3 8
7 4 3
7 5 3
7 6 4
8 0 4
8 1 8
8 2 3
8 3 1
8 4 1
8 5 2
8 6 6
8 7 2
9 0 5
9 1 2
9 2 6
9 3 5
9 4 5
9 5 4
9 6 5
9 7 7
9 8 2
10 0 8
10 1 1
10 2 5
10 3 7
10 4 1
10 5 3
10 6 2
10 7 2
10 8 7
10 9 4
11 0 1
11 1 4
11 2 3
11 3 7
11 4 6
11 5 3
11 6 3
11 7 8
11 8 4
11 9 6
11 10 1
12 0 3
12 1 3
12 2 7
12 3 1
12 4 5
12 5 5
12 6 7
12 7 5
12 8 8
12 9 1
12 10 2
12 11 4
13 0 6
13 1 2
13 2 6
13 3 7
13 4 1
13 5 7
13 6 4
13 7 3
13 8 7
13 9 3
13 10 7
13 11 3
13 12 2
14 0 5
14 1 7
14 2 4
14 3 8
14 4 3
14 5 7
14 6 7
14 7 8
14 8 2
14 9 2
14 10 5
14 11 1
14 12 4
14 13 4
